(set-logic QF_LIA)
(declare-fun x0 () Int)
(declare-fun x1 () Int)
(declare-fun x2 () Int)
(declare-fun x3 () Int)
(declare-fun x4 () Int)
(declare-fun x5 () Int)
(declare-fun x6 () Int)
(declare-fun x7 () Int)
(declare-fun x8 () Int)
(declare-fun x9 () Int)
(declare-fun A0 () Bool)
(declare-fun A1 () Bool)
(declare-fun A2 () Bool)
(declare-fun A3 () Bool)
(declare-fun A4 () Bool)
(declare-fun A5 () Bool)
(declare-fun A6 () Bool)
(declare-fun A7 () Bool)
(declare-fun A8 () Bool)
(declare-fun A9 () Bool)
(assert (let ((.def_0 (not A4))) (let ((.def_1 (and .def_0 A8))) (let ((.def_2 (not .def_1))) (let ((.def_3 (not A8))) (let ((.def_4 (* 1 x7))) (let ((.def_5 (< .def_4 (- 1)))) (let ((.def_6 (not .def_5))) (let ((.def_7 (and .def_6 .def_3))) (let ((.def_8 (not .def_7))) (let ((.def_9 (or .def_8 .def_2))) (let ((.def_10 (or .def_0 A2))) (let ((.def_11 (not .def_10))) (let ((.def_12 (* (- 1) x3))) (let ((.def_13 (< .def_12 1))) (let ((.def_14 (not .def_13))) (let ((.def_15 (= .def_14 A2))) (let ((.def_16 (and .def_15 .def_11))) (let ((.def_17 (or .def_16 .def_9))) (let ((.def_18 (not .def_17))) (let ((.def_19 (= A9 A5))) (let ((.def_20 (not .def_19))) (let ((.def_21 (not A9))) (let ((.def_22 (not A5))) (let ((.def_23 (or .def_22 .def_21))) (let ((.def_24 (not .def_23))) (let ((.def_25 (and .def_24 .def_20))) (let ((.def_26 (< .def_12 (- 1)))) (let ((.def_27 (or .def_26 A6))) (let ((.def_28 (not .def_27))) (let ((.def_29 (* (- 1) x2))) (let ((.def_30 (* (- 1) x9))) (let ((.def_31 (+ .def_30 .def_29))) (let ((.def_32 (< .def_31 1))) (let ((.def_33 (and A4 .def_32))) (let ((.def_34 (not .def_33))) (let ((.def_35 (or .def_34 .def_28))) (let ((.def_36 (not .def_35))) (let ((.def_37 (and .def_36 .def_25))) (let ((.def_38 (not .def_37))) (let ((.def_39 (or .def_38 .def_18))) (let ((.def_40 (not .def_39))) (let ((.def_41 (not A0))) (let ((.def_42 (or A1 .def_41))) (let ((.def_43 (* (- 1) x6))) (let ((.def_44 (< .def_43 1))) (let ((.def_45 (= .def_44 .def_21))) (let ((.def_46 (not .def_45))) (let ((.def_47 (and .def_46 .def_42))) (let ((.def_48 (not .def_47))) (let ((.def_49 (and A7 A1))) (let ((.def_50 (not .def_49))) (let ((.def_51 (* (- 1) x1))) (let ((.def_52 (< .def_51 1))) (let ((.def_53 (not .def_52))) (let ((.def_54 (and .def_41 .def_53))) (let ((.def_55 (not .def_54))) (let ((.def_56 (and .def_55 .def_50))) (let ((.def_57 (or .def_56 .def_48))) (let ((.def_58 (not .def_57))) (let ((.def_59 (or A2 .def_41))) (let ((.def_60 (* 1 x3))) (let ((.def_61 (< .def_60 1))) (let ((.def_62 (not .def_61))) (let ((.def_63 (and A6 .def_62))) (let ((.def_64 (and .def_63 .def_59))) (let ((.def_65 (+ .def_43 .def_30))) (let ((.def_66 (< .def_65 1))) (let ((.def_67 (not .def_66))) (let ((.def_68 (< .def_4 1))) (let ((.def_69 (= .def_68 .def_67))) (let ((.def_70 (and A9 A4))) (let ((.def_71 (not .def_70))) (let ((.def_72 (and .def_71 .def_69))) (let ((.def_73 (and .def_72 .def_64))) (let ((.def_74 (or .def_73 .def_58))) (let ((.def_75 (not .def_74))) (let ((.def_76 (and .def_75 .def_40))) (let ((.def_77 (not .def_76))) (let ((.def_78 (* 1 x5))) (let ((.def_79 (< .def_78 1))) (let ((.def_80 (not A1))) (let ((.def_81 (and .def_80 .def_79))) (let ((.def_82 (not .def_81))) (let ((.def_83 (not .def_26))) (let ((.def_84 (or .def_83 .def_0))) (let ((.def_85 (= .def_84 .def_82))) (let ((.def_86 (not .def_85))) (let ((.def_87 (< .def_51 (- 1)))) (let ((.def_88 (not .def_87))) (let ((.def_89 (or A6 .def_88))) (let ((.def_90 (not .def_89))) (let ((.def_91 (not A2))) (let ((.def_92 (* 1 x6))) (let ((.def_93 (+ .def_92 .def_12))) (let ((.def_94 (< .def_93 (- 1)))) (let ((.def_95 (not .def_94))) (let ((.def_96 (and .def_95 .def_91))) (let ((.def_97 (or .def_96 .def_90))) (let ((.def_98 (and .def_97 .def_86))) (let ((.def_99 (* 1 x1))) (let ((.def_100 (< .def_99 1))) (let ((.def_101 (or .def_100 A2))) (let ((.def_102 (not .def_101))) (let ((.def_103 (* 1 x4))) (let ((.def_104 (* (- 1) x5))) (let ((.def_105 (+ .def_104 .def_103))) (let ((.def_106 (< .def_105 1))) (let ((.def_107 (* (- 1) x0))) (let ((.def_108 (+ .def_60 .def_107))) (let ((.def_109 (< .def_108 1))) (let ((.def_110 (not .def_109))) (let ((.def_111 (and .def_110 .def_106))) (let ((.def_112 (not .def_111))) (let ((.def_113 (or .def_112 .def_102))) (let ((.def_114 (not .def_113))) (let ((.def_115 (and A4 .def_14))) (let ((.def_116 (* 1 x8))) (let ((.def_117 (< .def_116 (- 1)))) (let ((.def_118 (not .def_117))) (let ((.def_119 (+ .def_30 .def_103))) (let ((.def_120 (< .def_119 1))) (let ((.def_121 (and .def_120 .def_118))) (let ((.def_122 (or .def_121 .def_115))) (let ((.def_123 (not .def_122))) (let ((.def_124 (or .def_123 .def_114))) (let ((.def_125 (not .def_124))) (let ((.def_126 (= .def_125 .def_98))) (let ((.def_127 (not .def_126))) (let ((.def_128 (not A7))) (let ((.def_129 (not A3))) (let ((.def_130 (or .def_129 .def_128))) (let ((.def_131 (< .def_116 1))) (let ((.def_132 (and .def_131 .def_41))) (let ((.def_133 (not .def_132))) (let ((.def_134 (and .def_133 .def_130))) (let ((.def_135 (or .def_41 .def_128))) (let ((.def_136 (* (- 1) x7))) (let ((.def_137 (* 1 x2))) (let ((.def_138 (+ .def_137 .def_136))) (let ((.def_139 (< .def_138 1))) (let ((.def_140 (and .def_22 .def_139))) (let ((.def_141 (and .def_140 .def_135))) (let ((.def_142 (and .def_141 .def_134))) (let ((.def_143 (not A6))) (let ((.def_144 (and .def_143 .def_117))) (let ((.def_145 (not .def_144))) (let ((.def_146 (and A1 A3))) (let ((.def_147 (or .def_146 .def_145))) (let ((.def_148 (not .def_147))) (let ((.def_149 (or A4 A5))) (let ((.def_150 (or A1 A6))) (let ((.def_151 (and .def_150 .def_149))) (let ((.def_152 (or .def_151 .def_148))) (let ((.def_153 (not .def_152))) (let ((.def_154 (or .def_153 .def_142))) (let ((.def_155 (and .def_154 .def_127))) (let ((.def_156 (and .def_155 .def_77))) (let ((.def_157 (+ .def_43 .def_116))) (let ((.def_158 (< .def_157 1))) (let ((.def_159 (not .def_158))) (let ((.def_160 (* (- 1) x4))) (let ((.def_161 (< .def_160 1))) (let ((.def_162 (not .def_161))) (let ((.def_163 (and .def_162 .def_159))) (let ((.def_164 (* (- 1) x8))) (let ((.def_165 (+ .def_164 .def_107))) (let ((.def_166 (< .def_165 (- 1)))) (let ((.def_167 (and .def_166 .def_143))) (let ((.def_168 (not .def_167))) (let ((.def_169 (and .def_168 .def_163))) (let ((.def_170 (not .def_169))) (let ((.def_171 (< .def_92 1))) (let ((.def_172 (or .def_128 .def_171))) (let ((.def_173 (not .def_172))) (let ((.def_174 (< .def_104 1))) (let ((.def_175 (= .def_143 .def_174))) (let ((.def_176 (and .def_175 .def_173))) (let ((.def_177 (or .def_176 .def_170))) (let ((.def_178 (not .def_177))) (let ((.def_179 (or A0 A6))) (let ((.def_180 (+ .def_43 .def_4))) (let ((.def_181 (< .def_180 (- 1)))) (let ((.def_182 (not .def_181))) (let ((.def_183 (or .def_128 .def_182))) (let ((.def_184 (and .def_183 .def_179))) (let ((.def_185 (not .def_184))) (let ((.def_186 (+ .def_137 .def_104))) (let ((.def_187 (< .def_186 1))) (let ((.def_188 (< .def_78 (- 1)))) (let ((.def_189 (and .def_188 .def_187))) (let ((.def_190 (not .def_189))) (let ((.def_191 (or .def_41 A5))) (let ((.def_192 (not .def_191))) (let ((.def_193 (or .def_192 .def_190))) (let ((.def_194 (not .def_193))) (let ((.def_195 (and .def_194 .def_185))) (let ((.def_196 (not .def_195))) (let ((.def_197 (or .def_196 .def_178))) (let ((.def_198 (+ .def_12 .def_160))) (let ((.def_199 (< .def_198 (- 1)))) (let ((.def_200 (not .def_100))) (let ((.def_201 (and .def_200 .def_199))) (let ((.def_202 (or A8 .def_41))) (let ((.def_203 (not .def_202))) (let ((.def_204 (and .def_203 .def_201))) (let ((.def_205 (not .def_204))) (let ((.def_206 (or A3 .def_91))) (let ((.def_207 (not .def_206))) (let ((.def_208 (and .def_41 .def_0))) (let ((.def_209 (or .def_208 .def_207))) (let ((.def_210 (or .def_209 .def_205))) (let ((.def_211 (not .def_210))) (let ((.def_212 (* 1 x9))) (let ((.def_213 (+ .def_212 .def_99))) (let ((.def_214 (< .def_213 (- 1)))) (let ((.def_215 (or .def_214 .def_128))) (let ((.def_216 (not .def_215))) (let ((.def_217 (or A7 .def_3))) (let ((.def_218 (or .def_217 .def_216))) (let ((.def_219 (< .def_212 1))) (let ((.def_220 (not .def_219))) (let ((.def_221 (< .def_92 (- 1)))) (let ((.def_222 (and .def_221 .def_220))) (let ((.def_223 (+ .def_103 .def_92))) (let ((.def_224 (< .def_223 1))) (let ((.def_225 (not .def_224))) (let ((.def_226 (+ .def_51 .def_212))) (let ((.def_227 (< .def_226 1))) (let ((.def_228 (and .def_227 .def_225))) (let ((.def_229 (not .def_228))) (let ((.def_230 (and .def_229 .def_222))) (let ((.def_231 (and .def_230 .def_218))) (let ((.def_232 (not .def_231))) (let ((.def_233 (and .def_232 .def_211))) (let ((.def_234 (or .def_233 .def_197))) (let ((.def_235 (< .def_160 (- 1)))) (let ((.def_236 (not .def_235))) (let ((.def_237 (or A6 .def_236))) (let ((.def_238 (not .def_237))) (let ((.def_239 (or .def_44 .def_80))) (let ((.def_240 (and .def_239 .def_238))) (let ((.def_241 (not .def_240))) (let ((.def_242 (not .def_131))) (let ((.def_243 (or .def_242 A2))) (let ((.def_244 (and .def_22 .def_235))) (let ((.def_245 (not .def_244))) (let ((.def_246 (or .def_245 .def_243))) (let ((.def_247 (and .def_246 .def_241))) (let ((.def_248 (not .def_247))) (let ((.def_249 (+ .def_29 .def_92))) (let ((.def_250 (< .def_249 (- 1)))) (let ((.def_251 (or .def_22 .def_250))) (let ((.def_252 (not .def_251))) (let ((.def_253 (not .def_221))) (let ((.def_254 (and .def_22 .def_253))) (let ((.def_255 (not .def_254))) (let ((.def_256 (or .def_255 .def_252))) (let ((.def_257 (not .def_256))) (let ((.def_258 (and A4 A1))) (let ((.def_259 (and A6 .def_3))) (let ((.def_260 (and .def_259 .def_258))) (let ((.def_261 (not .def_260))) (let ((.def_262 (or .def_261 .def_257))) (let ((.def_263 (or .def_262 .def_248))) (let ((.def_264 (not .def_263))) (let ((.def_265 (< .def_212 (- 1)))) (let ((.def_266 (= A3 .def_265))) (let ((.def_267 (not .def_266))) (let ((.def_268 (or A8 A8))) (let ((.def_269 (not .def_268))) (let ((.def_270 (and .def_269 .def_267))) (let ((.def_271 (not .def_270))) (let ((.def_272 (+ .def_78 .def_51))) (let ((.def_273 (< .def_272 1))) (let ((.def_274 (+ .def_212 .def_116))) (let ((.def_275 (< .def_274 (- 1)))) (let ((.def_276 (or .def_275 .def_273))) (let ((.def_277 (not .def_276))) (let ((.def_278 (+ .def_92 .def_30))) (let ((.def_279 (< .def_278 1))) (let ((.def_280 (= A3 .def_279))) (let ((.def_281 (not .def_280))) (let ((.def_282 (= .def_281 .def_277))) (let ((.def_283 (not .def_282))) (let ((.def_284 (and .def_283 .def_271))) (let ((.def_285 (not .def_284))) (let ((.def_286 (+ .def_29 .def_43))) (let ((.def_287 (< .def_286 (- 1)))) (let ((.def_288 (not .def_287))) (let ((.def_289 (+ .def_160 .def_29))) (let ((.def_290 (< .def_289 (- 1)))) (let ((.def_291 (or .def_290 .def_288))) (let ((.def_292 (+ .def_103 .def_29))) (let ((.def_293 (< .def_292 1))) (let ((.def_294 (and A2 .def_293))) (let ((.def_295 (or .def_294 .def_291))) (let ((.def_296 (not .def_295))) (let ((.def_297 (and A8 A0))) (let ((.def_298 (< .def_103 (- 1)))) (let ((.def_299 (not .def_298))) (let ((.def_300 (or .def_299 A3))) (let ((.def_301 (not .def_300))) (let ((.def_302 (and .def_301 .def_297))) (let ((.def_303 (not .def_302))) (let ((.def_304 (or .def_303 .def_296))) (let ((.def_305 (and .def_304 .def_285))) (let ((.def_306 (or .def_305 .def_264))) (let ((.def_307 (not .def_306))) (let ((.def_308 (and .def_307 .def_234))) (let ((.def_309 (not .def_308))) (let ((.def_310 (and .def_309 .def_156))) (let ((.def_311 (+ .def_43 .def_29))) (let ((.def_312 (< .def_311 (- 1)))) (let ((.def_313 (+ .def_137 .def_164))) (let ((.def_314 (< .def_313 1))) (let ((.def_315 (not .def_314))) (let ((.def_316 (or .def_315 .def_312))) (let ((.def_317 (not .def_316))) (let ((.def_318 (< .def_107 1))) (let ((.def_319 (or A1 .def_318))) (let ((.def_320 (and .def_319 .def_317))) (let ((.def_321 (not .def_320))) (let ((.def_322 (+ .def_137 .def_103))) (let ((.def_323 (< .def_322 1))) (let ((.def_324 (not .def_323))) (let ((.def_325 (= .def_324 A7))) (let ((.def_326 (not .def_325))) (let ((.def_327 (+ .def_137 .def_12))) (let ((.def_328 (< .def_327 1))) (let ((.def_329 (and .def_328 .def_0))) (let ((.def_330 (not .def_329))) (let ((.def_331 (and .def_330 .def_326))) (let ((.def_332 (and .def_331 .def_321))) (let ((.def_333 (and A1 A5))) (let ((.def_334 (and A6 A8))) (let ((.def_335 (not .def_334))) (let ((.def_336 (and .def_335 .def_333))) (let ((.def_337 (+ .def_99 .def_78))) (let ((.def_338 (< .def_337 1))) (let ((.def_339 (not .def_338))) (let ((.def_340 (and .def_339 A7))) (let ((.def_341 (not .def_340))) (let ((.def_342 (< .def_99 (- 1)))) (let ((.def_343 (and .def_342 A9))) (let ((.def_344 (not .def_343))) (let ((.def_345 (or .def_344 .def_341))) (let ((.def_346 (not .def_345))) (let ((.def_347 (and .def_346 .def_336))) (let ((.def_348 (or .def_347 .def_332))) (let ((.def_349 (not .def_348))) (let ((.def_350 (* 1 x0))) (let ((.def_351 (+ .def_4 .def_350))) (let ((.def_352 (< .def_351 (- 1)))) (let ((.def_353 (or A3 .def_352))) (let ((.def_354 (< .def_137 1))) (let ((.def_355 (not .def_354))) (let ((.def_356 (or .def_355 A8))) (let ((.def_357 (or .def_356 .def_353))) (let ((.def_358 (and .def_117 A9))) (let ((.def_359 (not .def_358))) (let ((.def_360 (< .def_60 (- 1)))) (let ((.def_361 (+ .def_104 .def_43))) (let ((.def_362 (< .def_361 1))) (let ((.def_363 (= .def_362 .def_360))) (let ((.def_364 (not .def_363))) (let ((.def_365 (or .def_364 .def_359))) (let ((.def_366 (and .def_365 .def_357))) (let ((.def_367 (+ .def_4 .def_212))) (let ((.def_368 (< .def_367 1))) (let ((.def_369 (= A9 .def_368))) (let ((.def_370 (not .def_369))) (let ((.def_371 (+ .def_30 .def_107))) (let ((.def_372 (< .def_371 (- 1)))) (let ((.def_373 (+ .def_103 .def_212))) (let ((.def_374 (< .def_373 (- 1)))) (let ((.def_375 (not .def_374))) (let ((.def_376 (or .def_375 .def_372))) (let ((.def_377 (not .def_376))) (let ((.def_378 (and .def_377 .def_370))) (let ((.def_379 (not .def_378))) (let ((.def_380 (+ .def_12 .def_212))) (let ((.def_381 (< .def_380 (- 1)))) (let ((.def_382 (not .def_381))) (let ((.def_383 (and .def_87 .def_382))) (let ((.def_384 (not .def_383))) (let ((.def_385 (or .def_354 A1))) (let ((.def_386 (not .def_385))) (let ((.def_387 (and .def_386 .def_384))) (let ((.def_388 (and .def_387 .def_379))) (let ((.def_389 (and .def_388 .def_366))) (let ((.def_390 (not .def_389))) (let ((.def_391 (and .def_390 .def_349))) (let ((.def_392 (+ .def_104 .def_107))) (let ((.def_393 (< .def_392 (- 1)))) (let ((.def_394 (not .def_393))) (let ((.def_395 (or A0 .def_394))) (let ((.def_396 (+ .def_60 .def_164))) (let ((.def_397 (< .def_396 1))) (let ((.def_398 (and .def_129 .def_397))) (let ((.def_399 (not .def_398))) (let ((.def_400 (or .def_399 .def_395))) (let ((.def_401 (+ .def_164 .def_43))) (let ((.def_402 (< .def_401 1))) (let ((.def_403 (not .def_402))) (let ((.def_404 (and .def_403 .def_80))) (let ((.def_405 (not .def_318))) (let ((.def_406 (< .def_30 (- 1)))) (let ((.def_407 (not .def_406))) (let ((.def_408 (= .def_407 .def_405))) (let ((.def_409 (= .def_408 .def_404))) (let ((.def_410 (and .def_409 .def_400))) (let ((.def_411 (< .def_105 (- 1)))) (let ((.def_412 (not .def_411))) (let ((.def_413 (and A8 .def_412))) (let ((.def_414 (+ .def_92 .def_160))) (let ((.def_415 (< .def_414 (- 1)))) (let ((.def_416 (not .def_415))) (let ((.def_417 (or .def_21 .def_416))) (let ((.def_418 (not .def_417))) (let ((.def_419 (and .def_418 .def_413))) (let ((.def_420 (not .def_419))) (let ((.def_421 (not .def_250))) (let ((.def_422 (and .def_143 .def_421))) (let ((.def_423 (not .def_422))) (let ((.def_424 (+ .def_350 .def_60))) (let ((.def_425 (< .def_424 1))) (let ((.def_426 (not .def_425))) (let ((.def_427 (+ .def_99 .def_350))) (let ((.def_428 (< .def_427 (- 1)))) (let ((.def_429 (not .def_428))) (let ((.def_430 (or .def_429 .def_426))) (let ((.def_431 (not .def_430))) (let ((.def_432 (or .def_431 .def_423))) (let ((.def_433 (and .def_432 .def_420))) (let ((.def_434 (= .def_433 .def_410))) (let ((.def_435 (not .def_434))) (let ((.def_436 (and A1 .def_21))) (let ((.def_437 (not .def_436))) (let ((.def_438 (or .def_200 .def_3))) (let ((.def_439 (and .def_438 .def_437))) (let ((.def_440 (not .def_439))) (let ((.def_441 (+ .def_99 .def_137))) (let ((.def_442 (< .def_441 (- 1)))) (let ((.def_443 (not .def_442))) (let ((.def_444 (and .def_443 A4))) (let ((.def_445 (not .def_444))) (let ((.def_446 (+ .def_350 .def_212))) (let ((.def_447 (< .def_446 (- 1)))) (let ((.def_448 (or .def_447 .def_95))) (let ((.def_449 (not .def_448))) (let ((.def_450 (and .def_449 .def_445))) (let ((.def_451 (not .def_450))) (let ((.def_452 (and .def_451 .def_440))) (let ((.def_453 (and A2 .def_80))) (let ((.def_454 (not .def_453))) (let ((.def_455 (and .def_128 A1))) (let ((.def_456 (or .def_455 .def_454))) (let ((.def_457 (not .def_456))) (let ((.def_458 (+ .def_43 .def_104))) (let ((.def_459 (< .def_458 (- 1)))) (let ((.def_460 (and .def_221 .def_459))) (let ((.def_461 (< .def_164 1))) (let ((.def_462 (not .def_461))) (let ((.def_463 (< .def_136 1))) (let ((.def_464 (not .def_463))) (let ((.def_465 (and .def_464 .def_462))) (let ((.def_466 (or .def_465 .def_460))) (let ((.def_467 (not .def_466))) (let ((.def_468 (or .def_467 .def_457))) (let ((.def_469 (or .def_468 .def_452))) (let ((.def_470 (and .def_469 .def_435))) (let ((.def_471 (not .def_470))) (let ((.def_472 (and .def_471 .def_391))) (let ((.def_473 (not .def_472))) (let ((.def_474 (or .def_161 .def_143))) (let ((.def_475 (not .def_474))) (let ((.def_476 (or .def_53 .def_463))) (let ((.def_477 (not .def_476))) (let ((.def_478 (and .def_477 .def_475))) (let ((.def_479 (+ .def_30 .def_43))) (let ((.def_480 (< .def_479 (- 1)))) (let ((.def_481 (and .def_480 A5))) (let ((.def_482 (not .def_481))) (let ((.def_483 (< .def_29 (- 1)))) (let ((.def_484 (or .def_236 .def_483))) (let ((.def_485 (not .def_484))) (let ((.def_486 (and .def_485 .def_482))) (let ((.def_487 (and .def_486 .def_478))) (let ((.def_488 (< .def_43 (- 1)))) (let ((.def_489 (not .def_488))) (let ((.def_490 (and .def_91 .def_489))) (let ((.def_491 (+ .def_78 .def_92))) (let ((.def_492 (< .def_491 1))) (let ((.def_493 (not .def_492))) (let ((.def_494 (and .def_3 .def_493))) (let ((.def_495 (or .def_494 .def_490))) (let ((.def_496 (not .def_495))) (let ((.def_497 (and A6 .def_360))) (let ((.def_498 (and A7 A2))) (let ((.def_499 (not .def_498))) (let ((.def_500 (= .def_499 .def_497))) (let ((.def_501 (and .def_500 .def_496))) (let ((.def_502 (not .def_501))) (let ((.def_503 (and .def_502 .def_487))) (let ((.def_504 (not .def_503))) (let ((.def_505 (and .def_80 .def_242))) (let ((.def_506 (not .def_505))) (let ((.def_507 (not .def_360))) (let ((.def_508 (and .def_507 .def_242))) (let ((.def_509 (or .def_508 .def_506))) (let ((.def_510 (not .def_509))) (let ((.def_511 (+ .def_164 .def_350))) (let ((.def_512 (< .def_511 (- 1)))) (let ((.def_513 (not .def_512))) (let ((.def_514 (+ .def_99 .def_29))) (let ((.def_515 (< .def_514 1))) (let ((.def_516 (or .def_515 .def_513))) (let ((.def_517 (+ .def_164 .def_92))) (let ((.def_518 (< .def_517 (- 1)))) (let ((.def_519 (not .def_518))) (let ((.def_520 (and .def_519 .def_354))) (let ((.def_521 (not .def_520))) (let ((.def_522 (or .def_521 .def_516))) (let ((.def_523 (and .def_522 .def_510))) (let ((.def_524 (not .def_523))) (let ((.def_525 (and A4 .def_61))) (let ((.def_526 (not .def_525))) (let ((.def_527 (< .def_350 1))) (let ((.def_528 (not .def_527))) (let ((.def_529 (or .def_0 .def_528))) (let ((.def_530 (not .def_529))) (let ((.def_531 (or .def_530 .def_526))) (let ((.def_532 (+ .def_51 .def_30))) (let ((.def_533 (< .def_532 1))) (let ((.def_534 (not .def_533))) (let ((.def_535 (or .def_22 .def_534))) (let ((.def_536 (not .def_535))) (let ((.def_537 (and .def_129 A3))) (let ((.def_538 (and .def_537 .def_536))) (let ((.def_539 (and .def_538 .def_531))) (let ((.def_540 (or .def_539 .def_524))) (let ((.def_541 (or .def_540 .def_504))) (let ((.def_542 (+ .def_350 .def_29))) (let ((.def_543 (< .def_542 (- 1)))) (let ((.def_544 (< .def_30 1))) (let ((.def_545 (or .def_544 .def_543))) (let ((.def_546 (+ .def_136 .def_164))) (let ((.def_547 (< .def_546 (- 1)))) (let ((.def_548 (= .def_22 .def_547))) (let ((.def_549 (= .def_548 .def_545))) (let ((.def_550 (+ .def_137 .def_212))) (let ((.def_551 (< .def_550 (- 1)))) (let ((.def_552 (not .def_551))) (let ((.def_553 (and .def_22 .def_552))) (let ((.def_554 (+ .def_29 .def_78))) (let ((.def_555 (< .def_554 1))) (let ((.def_556 (not .def_555))) (let ((.def_557 (or .def_22 .def_556))) (let ((.def_558 (not .def_557))) (let ((.def_559 (and .def_558 .def_553))) (let ((.def_560 (and .def_559 .def_549))) (let ((.def_561 (or .def_13 A7))) (let ((.def_562 (or A7 A0))) (let ((.def_563 (not .def_562))) (let ((.def_564 (and .def_563 .def_561))) (let ((.def_565 (< .def_327 (- 1)))) (let ((.def_566 (not .def_565))) (let ((.def_567 (or .def_566 .def_118))) (let ((.def_568 (and .def_68 .def_528))) (let ((.def_569 (not .def_568))) (let ((.def_570 (or .def_569 .def_567))) (let ((.def_571 (not .def_570))) (let ((.def_572 (and .def_571 .def_564))) (let ((.def_573 (or .def_572 .def_560))) (let ((.def_574 (+ .def_116 .def_60))) (let ((.def_575 (< .def_574 (- 1)))) (let ((.def_576 (not .def_575))) (let ((.def_577 (+ .def_60 .def_51))) (let ((.def_578 (< .def_577 1))) (let ((.def_579 (and .def_578 .def_576))) (let ((.def_580 (+ .def_103 .def_30))) (let ((.def_581 (< .def_580 1))) (let ((.def_582 (or .def_581 A6))) (let ((.def_583 (not .def_582))) (let ((.def_584 (or .def_583 .def_579))) (let ((.def_585 (not .def_584))) (let ((.def_586 (+ .def_137 .def_78))) (let ((.def_587 (< .def_586 (- 1)))) (let ((.def_588 (not .def_587))) (let ((.def_589 (or A3 .def_588))) (let ((.def_590 (not .def_589))) (let ((.def_591 (+ .def_29 .def_212))) (let ((.def_592 (< .def_591 1))) (let ((.def_593 (< .def_350 (- 1)))) (let ((.def_594 (and .def_593 .def_592))) (let ((.def_595 (and .def_594 .def_590))) (let ((.def_596 (not .def_595))) (let ((.def_597 (and .def_596 .def_585))) (let ((.def_598 (+ .def_103 .def_136))) (let ((.def_599 (< .def_598 (- 1)))) (let ((.def_600 (not .def_599))) (let ((.def_601 (or .def_600 .def_143))) (let ((.def_602 (not .def_601))) (let ((.def_603 (and .def_129 .def_315))) (let ((.def_604 (not .def_603))) (let ((.def_605 (or .def_604 .def_602))) (let ((.def_606 (= A2 .def_80))) (let ((.def_607 (+ .def_160 .def_212))) (let ((.def_608 (< .def_607 1))) (let ((.def_609 (= .def_608 .def_129))) (let ((.def_610 (and .def_609 .def_606))) (let ((.def_611 (and .def_610 .def_605))) (let ((.def_612 (not .def_611))) (let ((.def_613 (and .def_612 .def_597))) (let ((.def_614 (and .def_613 .def_573))) (let ((.def_615 (and .def_614 .def_541))) (let ((.def_616 (or .def_615 .def_473))) (let ((.def_617 (= .def_616 .def_310))) (let ((.def_618 (not .def_617))) (let ((.def_619 (<= x9 1))) (let ((.def_620 (<= 0 x9))) (let ((.def_621 (<= x8 1))) (let ((.def_622 (<= 0 x8))) (let ((.def_623 (<= x7 1))) (let ((.def_624 (<= 0 x7))) (let ((.def_625 (<= x6 1))) (let ((.def_626 (<= 0 x6))) (let ((.def_627 (<= x5 1))) (let ((.def_628 (<= 0 x5))) (let ((.def_629 (<= x4 1))) (let ((.def_630 (<= 0 x4))) (let ((.def_631 (<= x3 1))) (let ((.def_632 (<= 0 x3))) (let ((.def_633 (<= x2 1))) (let ((.def_634 (<= 0 x2))) (let ((.def_635 (<= x1 1))) (let ((.def_636 (<= 0 x1))) (let ((.def_637 (<= x0 1))) (let ((.def_638 (<= 0 x0))) (let ((.def_639 (and .def_638 .def_637 .def_636 .def_635 .def_634 .def_633 .def_632 .def_631 .def_630 .def_629 .def_628 .def_627 .def_626 .def_625 .def_624 .def_623 .def_622 .def_621 .def_620 .def_619 .def_618))) .def_639)))))))))))))))))))))))))))))))))))))))))))))))))))))))))))))))))))))))))))))))))))))))))))))))))))))))))))))))))))))))))))))))))))))))))))))))))))))))))))))))))))))))))))))))))))))))))))))))))))))))))))))))))))))))))))))))))))))))))))))))))))))))))))))))))))))))))))))))))))))))))))))))))))))))))))))))))))))))))))))))))))))))))))))))))))))))))))))))))))))))))))))))))))))))))))))))))))))))))))))))))))))))))))))))))))))))))))))))))))))))))))))))))))))))))))))))))))))))))))))))))))))))))))))))))))))))))))))))))))))))))))))))))))))))))))))))))))))))))))))))))))))))))))))))))))))))))))))))))))))))))))))))))))))))))))))))))))))))))))))))))
(check-sat)
